nN = 6;
nR = 15;
nH = 1;

a = [[9, 12, 11, 22, 6, 17, 13, 13, 21, 23, 16, 11, 15, 18, 6], [7, 7, 12, 16, 24, 8, 17, 7, 22, 13, 6, 14, 21, 9, 16], [22, 5, 9, 9, 17, 21, 22, 17, 8, 8, 19, 19, 14, 16, 11], [24, 25, 9, 9, 15, 6, 20, 23, 20, 25, 19, 9, 13, 15, 7], [25, 13, 12, 16, 19, 24, 12, 19, 13, 17, 10, 24, 21, 20, 22], [11, 21, 14, 14, 9, 20, 13, 12, 6, 8, 15, 23, 7, 20, 15]];
c = [[[0, 0, 0, 0, 0, 0, 0, 0, 0, 0, 0, 0, 0, 0, 0], [31, 41, 46, 39, 33, 41, 40, 41, 35, 41, 50, 46, 33, 34, 49], [38, 50, 40, 40, 38, 33, 38, 49, 34, 37, 34, 48, 49, 32, 38], [30, 45, 44, 38, 50, 46, 50, 50, 42, 47, 36, 46, 46, 37, 40], [33, 37, 37, 37, 35, 40, 47, 39, 31, 41, 30, 40, 40, 40, 45], [38, 43, 45, 45, 35, 31, 44, 31, 45, 39, 33, 50, 31, 37, 38]], [[0, 0, 0, 0, 0, 0, 0, 0, 0, 0, 0, 0, 0, 0, 0], [0, 0, 0, 0, 0, 0, 0, 0, 0, 0, 0, 0, 0, 0, 0], [45, 48, 44, 40, 31, 33, 45, 49, 36, 42, 47, 39, 50, 33, 44], [31, 45, 31, 45, 33, 46, 35, 31, 38, 41, 37, 49, 33, 46, 41], [45, 36, 38, 43, 30, 33, 32, 43, 47, 45, 41, 36, 37, 50, 40], [40, 48, 31, 40, 32, 38, 33, 32, 41, 48, 36, 46, 35, 39, 50]], [[0, 0, 0, 0, 0, 0, 0, 0, 0, 0, 0, 0, 0, 0, 0], [0, 0, 0, 0, 0, 0, 0, 0, 0, 0, 0, 0, 0, 0, 0], [0, 0, 0, 0, 0, 0, 0, 0, 0, 0, 0, 0, 0, 0, 0], [40, 32, 42, 45, 33, 36, 31, 30, 40, 32, 33, 37, 41, 31, 36], [48, 39, 40, 32, 50, 44, 30, 45, 44, 44, 37, 36, 34, 34, 34], [48, 37, 34, 37, 30, 41, 30, 47, 41, 44, 46, 45, 42, 46, 32]], [[0, 0, 0, 0, 0, 0, 0, 0, 0, 0, 0, 0, 0, 0, 0], [0, 0, 0, 0, 0, 0, 0, 0, 0, 0, 0, 0, 0, 0, 0], [0, 0, 0, 0, 0, 0, 0, 0, 0, 0, 0, 0, 0, 0, 0], [0, 0, 0, 0, 0, 0, 0, 0, 0, 0, 0, 0, 0, 0, 0], [36, 40, 32, 46, 39, 36, 33, 40, 47, 47, 46, 47, 31, 35, 36], [43, 41, 44, 39, 48, 47, 39, 30, 48, 32, 39, 42, 40, 35, 31]], [[0, 0, 0, 0, 0, 0, 0, 0, 0, 0, 0, 0, 0, 0, 0], [0, 0, 0, 0, 0, 0, 0, 0, 0, 0, 0, 0, 0, 0, 0], [0, 0, 0, 0, 0, 0, 0, 0, 0, 0, 0, 0, 0, 0, 0], [0, 0, 0, 0, 0, 0, 0, 0, 0, 0, 0, 0, 0, 0, 0], [0, 0, 0, 0, 0, 0, 0, 0, 0, 0, 0, 0, 0, 0, 0], [32, 40, 48, 32, 46, 31, 30, 41, 45, 33, 47, 49, 45, 36, 37]], [[0, 0, 0, 0, 0, 0, 0, 0, 0, 0, 0, 0, 0, 0, 0], [0, 0, 0, 0, 0, 0, 0, 0, 0, 0, 0, 0, 0, 0, 0], [0, 0, 0, 0, 0, 0, 0, 0, 0, 0, 0, 0, 0, 0, 0], [0, 0, 0, 0, 0, 0, 0, 0, 0, 0, 0, 0, 0, 0, 0], [0, 0, 0, 0, 0, 0, 0, 0, 0, 0, 0, 0, 0, 0, 0], [0, 0, 0, 0, 0, 0, 0, 0, 0, 0, 0, 0, 0, 0, 0]]];
Q = [[25], [28], [30], [33], [28], [34]];

q = [[[5], [15], [9], [16], [5], [9], [20], [17], [25], [19], [12], [12], [7], [5], [6]], [[16], [7], [13], [10], [24], [14], [6], [12], [7], [21], [15], [17], [7], [20], [15]], [[8], [25], [5], [12], [18], [5], [11], [19], [16], [25], [14], [10], [18], [8], [25]], [[11], [25], [13], [18], [22], [22], [6], [24], [5], [15], [17], [19], [6], [23], [18]], [[22], [6], [17], [8], [5], [8], [12], [14], [18], [8], [10], [15], [21], [22], [21]], [[11], [24], [18], [16], [22], [18], [24], [25], [9], [11], [12], [10], [24], [18], [8]]];
p = [0.27, 0.37, 0.36, 0.39, 0.96, 0.36, 0.48, 0.28, 0.39, 0.96, 0.53, 0.89, 1.0, 0.57, 0.14];
